3-3000-1000-10000-6000-0.7-2-129-62654.3-3000.03-1260.91-1-3
3-3000-1000-10000-6000-0.7-2-137-62442.3-3000.25-2531.56-1-3
3-3000-1000-10000-6000-0.7-2-279-63043.7-3000.12-2996.95-2-3
3-3000-1000-10000-6000-0.7-2-672-62681.2-3000.34-1265.04-1-3
3-3000-1000-10000-6000-0.7-2-195-62626.2-3000.08-1265.3-1-3
3-3000-1000-10000-6000-0.7-2-666-62807.7-3000.04-2454.78-1-3
3-3000-1000-10000-6000-0.7-2-429-62836.1-3000.07-1293.26-1-3
3-3000-1000-10000-6000-0.7-2-762-62785.6-3000.03-2490.26-1-3
3-3000-1000-10000-6000-0.7-2-821-63043.7-3000.02-1273.02-1-3
3-3000-1000-10000-6000-0.7-2-483-62748.8-3000.12-2441.62-1-3
3-3000-1000-10000-6000-0.7-2-999-62186.7-3000.21-1251.46-1-3
3-3000-1000-10000-6000-0.7-2-729-62626.9-3000.16-2449.6-1-3
3-3000-1000-10000-6000-0.7-2-318-62475.1-3000.14-2520.85-1-3
3-3000-1000-10000-6000-0.7-2-349-62874.8-3000.23-1230.17-1-3
3-3000-1000-10000-6000-0.7-2-287-62398.5-3000.34-2511.67-1-3
3-3000-1000-10000-6000-0.7-2-241-62562.5-3000.08-2475.32-1-3
3-3000-1000-10000-6000-0.7-2-476-62866.8-3000.15-2419.4-1-3
3-3000-1000-10000-6000-0.7-2-555-62589.3-3000.05-1246.85-1-3
3-3000-1000-10000-6000-0.7-2-581-62578.4-3000.17-1265.29-1-3
3-3000-1000-10000-6000-0.7-2-573-62362.2-3000.09-2500-1-3
